NAME : single
TYPE : ATSP
DIMENSION : 13
EDGE_WEIGHT_TYPE : EXPLICIT
EDGE_WEIGHT_FORMAT : FULL_MATRIX
EDGE_WEIGHT_SECTION
0 974 1132 50391 839 50339 813 50326 405 486 114 115 243 
0 0 50000 50000 264 83 267 170 50000 427 513 556 637 
0 50000 0 296 321 275 361 391 50000 599 696 732 821 
0 50000 296 0 373 356 419 421 50000 648 745 787 870 
0 264 321 373 0 288 109 246 493 387 424 467 548 
0 83 275 356 288 0 291 92 50000 50000 50000 50000 50000 
0 267 361 419 109 291 0 253 348 250 359 411 485 
0 170 391 421 246 92 253 0 50000 50000 50000 50000 50000 
0 50000 50000 50000 493 50000 348 50000 0 237 212 270 339 
0 427 599 648 387 50000 250 50000 237 0 205 240 329 
0 513 696 745 424 50000 359 50000 212 205 0 170 114 
0 556 732 787 467 50000 411 50000 270 240 170 0 165 
0 637 821 870 548 50000 485 50000 339 329 114 165 0 
EOF